instances/knapsack/discrete_knapsack_uncertainty/knapsack_70_19.lp
\ Model knapsack_70_19
\ LP format - for model browsing. Use MPS format to capture full model detail.
\ Signature: 0x9699bb600e1f4c54
Minimize
  - 19 x[0] - 15 x[1] - 97 x[2] - 73 x[3] - 94 x[4] - 82 x[5] - 50 x[6]
   - 84 x[7] - 19 x[8] - 95 x[9] - 72 x[10] - 76 x[11] - 8 x[12] - 83 x[13]
   - 72 x[14] - 21 x[15] - 31 x[16] - 79 x[17] - 43 x[18] - 62 x[19]
   - 38 x[20] - 92 x[21] - 73 x[22] - 41 x[23] - 6 x[24] - 31 x[25]
   - 77 x[26] - 68 x[27] - 63 x[28] - 49 x[29] - 94 x[30] - 73 x[31]
   - 61 x[32] - 44 x[33] - 100 x[34] - 46 x[35] - 22 x[36] - 28 x[37]
   - 87 x[38] - 48 x[39] - 65 x[40] - 18 x[41] - 70 x[42] - 96 x[43]
   - 35 x[44] - 24 x[45] - 29 x[46] - 61 x[47] - 65 x[48] - 70 x[49]
   - 12 x[50] - 63 x[51] - 60 x[52] - 82 x[53] - 33 x[54] - 91 x[55]
   - 39 x[56] - 13 x[57] - 57 x[58] - 64 x[59] - 85 x[60] - 27 x[61]
   - 42 x[62] - 30 x[63] - 43 x[64] - 82 x[65] - 34 x[66] - 6 x[67]
   - 33 x[68] - 30 x[69]
Subject To
 primal_upper: 70 x[0] + 23 x[1] + 25 x[2] + 22 x[3] + 43 x[4] + 16 x[5]
   + 68 x[6] + 46 x[7] + 52 x[8] + 93 x[9] + 82 x[10] + 6 x[11] + 91 x[12]
   + 63 x[13] + 23 x[14] + 59 x[15] + 4 x[16] + 99 x[17] + 36 x[18]
   + 89 x[19] + 60 x[20] + 90 x[21] + 99 x[22] + 53 x[23] + 23 x[24]
   + 99 x[25] + 37 x[26] + 50 x[27] + 68 x[28] + 6 x[29] + 56 x[30]
   + 6 x[31] + 22 x[32] + 92 x[33] + 71 x[34] + 16 x[35] + 75 x[36]
   + 91 x[37] + 55 x[38] + 93 x[39] + 78 x[40] + 64 x[41] + x[42]
   + 28 x[43] + 86 x[44] + 77 x[45] + 80 x[46] + 20 x[47] + 6 x[48]
   + 91 x[49] + 73 x[50] + 51 x[51] + 68 x[52] + 67 x[53] + 7 x[54]
   + 6 x[55] + 80 x[56] + 77 x[57] + 27 x[58] + 21 x[59] + 83 x[60]
   + 73 x[61] + 10 x[62] + 65 x[63] + 62 x[64] + 55 x[65] + 23 x[66]
   + x[67] + 3 x[68] + 12 x[69] + 7 r[0] + 2.3 r[1] + 2.5 r[2] + 2.2 r[3]
   + 4.3 r[4] + 1.6 r[5] + 6.8 r[6] + 4.6 r[7] + 5.2 r[8] + 9.3 r[9]
   + 8.2 r[10] + 0.6 r[11] + 9.1 r[12] + 6.3 r[13] + 2.3 r[14] + 5.9 r[15]
   + 0.4 r[16] + 9.9 r[17] + 3.6 r[18] + 8.9 r[19] + 6 r[20] + 9 r[21]
   + 9.9 r[22] + 5.3 r[23] + 2.3 r[24] + 9.9 r[25] + 3.7 r[26] + 5 r[27]
   + 6.8 r[28] + 0.6 r[29] + 5.6 r[30] + 0.6 r[31] + 2.2 r[32] + 9.2 r[33]
   + 7.1 r[34] + 1.6 r[35] + 7.5 r[36] + 9.1 r[37] + 5.5 r[38] + 9.3 r[39]
   + 7.8 r[40] + 6.4 r[41] + 0.1 r[42] + 2.8 r[43] + 8.6 r[44] + 7.7 r[45]
   + 8 r[46] + 2 r[47] + 0.6 r[48] + 9.1 r[49] + 7.3 r[50] + 5.1 r[51]
   + 6.8 r[52] + 6.7 r[53] + 0.7 r[54] + 0.6 r[55] + 8 r[56] + 7.7 r[57]
   + 2.7 r[58] + 2.1 r[59] + 8.3 r[60] + 7.3 r[61] + r[62] + 6.5 r[63]
   + 6.2 r[64] + 5.5 r[65] + 2.3 r[66] + 0.1 r[67] + 0.3 r[68] + 1.2 r[69]
   <= 339
 primal_lower: 4.587941022481406 x[0] + 5.044000278635922 x[1]
   + 0.0813486542169217 x[2] + 0.4965645997051891 x[3]
   + 4.6816928788278 x[4] + 0.107698228710987 x[5] + 4.52106318974645 x[6]
   + 2.390756243555121 x[7] + 2.677862535982318 x[8]
   + 0.4098375241731307 x[9] + 3.731484805115045 x[10]
   + 0.132022789116371 x[11] + 2.607323888340914 x[12]
   + 0.4383593769357532 x[13] + 2.859696253922957 x[14]
   + 0.9530582495782094 x[15] + 0.1910083275257866 x[16]
   + 3.376506494497526 x[17] + 5.005023767889311 x[18]
   + 1.328405120594824 x[19] + 2.141047949170304 x[20]
   + 5.312695894036689 x[21] + 3.554447130175752 x[22]
   + 0.0563299056865917 x[23] + 0.6413843883183327 x[24]
   + 1.054330651194559 x[25] + 4.220335573574749 x[26]
   + 2.526951366638518 x[27] + 4.133346982364671 x[28]
   + 5.543505521687389 x[29] + 1.945102361482539 x[30]
   + 4.641633894078492 x[31] + 3.981261863616307 x[32]
   + 4.220320571410412 x[33] + 1.793953733062053 x[34]
   + 3.467867370759467 x[35] + 4.777859579213353 x[36]
   + 1.189643007122127 x[37] + 2.086713246535497 x[38]
   + 0.1658913552066479 x[39] + 2.503987314189942 x[40]
   + 0.6889327728118747 x[41] + 3.454432546307374 x[42]
   + 2.657585190012513 x[43] + 0.1943948921671172 x[44]
   + 0.7221737341381598 x[45] + 4.002453595403519 x[46]
   + 2.426538000417283 x[47] + 1.885304430371571 x[48]
   + 5.03038164060945 x[49] + 0.1947120376184421 x[50]
   + 1.309379631661914 x[51] + 3.562919621924966 x[52]
   + 2.651910360259059 x[53] + 3.958732259465003 x[54]
   + 0.5955487568988019 x[55] + 1.518706436326401 x[56]
   + 0.1344509127839118 x[57] + 2.217493571082768 x[58]
   + 5.204860748200952 x[59] + 4.136625041573345 x[60]
   + 0.8595454813622029 x[61] + 1.574740126434979 x[62]
   + 2.491107818710377 x[63] + 1.624799640702347 x[64]
   + 4.482886141734087 x[65] + 5.346174972494777 x[66]
   + 0.8878252399860629 x[67] + 5.078411757454513 x[68]
   + 0.6600862679864579 x[69] + 8 u[0] + 65 u[1] + 75 u[2] + 68 u[3]
   + 13 u[4] + 46 u[5] + 66 u[6] + 56 u[7] + 90 u[8] + 95 u[9] + 72 u[10]
   + 16 u[11] + 5 u[12] + 93 u[13] + 85 u[14] + 85 u[15] + 38 u[16]
   + 53 u[17] + 58 u[18] + 95 u[19] + 38 u[20] + 60 u[21] + 81 u[22]
   + 91 u[23] + 13 u[24] + 25 u[25] + 19 u[26] + 100 u[27] + 30 u[28]
   + 12 u[29] + 70 u[30] + 44 u[31] + 96 u[32] + 10 u[33] + 29 u[34]
   + 94 u[35] + 73 u[36] + 89 u[37] + 49 u[38] + 63 u[39] + 76 u[40]
   + 98 u[41] + 95 u[42] + 98 u[43] + 56 u[44] + 55 u[45] + 98 u[46]
   + 74 u[47] + 32 u[48] + 21 u[49] + 27 u[50] + 93 u[51] + 94 u[52]
   + 29 u[53] + 25 u[54] + 60 u[55] + 34 u[56] + 75 u[57] + 77 u[58]
   + 59 u[59] + 61 u[60] + 3 u[61] + 52 u[62] + 39 u[63] + 80 u[64]
   + 85 u[65] + 57 u[66] + 55 u[67] + 25 u[68] + 90 u[69] <= 23143
 mccormick1[0]: - u[0] + r[0] <= 0
 mccormick1[1]: - u[1] + r[1] <= 0
 mccormick1[2]: - u[2] + r[2] <= 0
 mccormick1[3]: - u[3] + r[3] <= 0
 mccormick1[4]: - u[4] + r[4] <= 0
 mccormick1[5]: - u[5] + r[5] <= 0
 mccormick1[6]: - u[6] + r[6] <= 0
 mccormick1[7]: - u[7] + r[7] <= 0
 mccormick1[8]: - u[8] + r[8] <= 0
 mccormick1[9]: - u[9] + r[9] <= 0
 mccormick1[10]: - u[10] + r[10] <= 0
 mccormick1[11]: - u[11] + r[11] <= 0
 mccormick1[12]: - u[12] + r[12] <= 0
 mccormick1[13]: - u[13] + r[13] <= 0
 mccormick1[14]: - u[14] + r[14] <= 0
 mccormick1[15]: - u[15] + r[15] <= 0
 mccormick1[16]: - u[16] + r[16] <= 0
 mccormick1[17]: - u[17] + r[17] <= 0
 mccormick1[18]: - u[18] + r[18] <= 0
 mccormick1[19]: - u[19] + r[19] <= 0
 mccormick1[20]: - u[20] + r[20] <= 0
 mccormick1[21]: - u[21] + r[21] <= 0
 mccormick1[22]: - u[22] + r[22] <= 0
 mccormick1[23]: - u[23] + r[23] <= 0
 mccormick1[24]: - u[24] + r[24] <= 0
 mccormick1[25]: - u[25] + r[25] <= 0
 mccormick1[26]: - u[26] + r[26] <= 0
 mccormick1[27]: - u[27] + r[27] <= 0
 mccormick1[28]: - u[28] + r[28] <= 0
 mccormick1[29]: - u[29] + r[29] <= 0
 mccormick1[30]: - u[30] + r[30] <= 0
 mccormick1[31]: - u[31] + r[31] <= 0
 mccormick1[32]: - u[32] + r[32] <= 0
 mccormick1[33]: - u[33] + r[33] <= 0
 mccormick1[34]: - u[34] + r[34] <= 0
 mccormick1[35]: - u[35] + r[35] <= 0
 mccormick1[36]: - u[36] + r[36] <= 0
 mccormick1[37]: - u[37] + r[37] <= 0
 mccormick1[38]: - u[38] + r[38] <= 0
 mccormick1[39]: - u[39] + r[39] <= 0
 mccormick1[40]: - u[40] + r[40] <= 0
 mccormick1[41]: - u[41] + r[41] <= 0
 mccormick1[42]: - u[42] + r[42] <= 0
 mccormick1[43]: - u[43] + r[43] <= 0
 mccormick1[44]: - u[44] + r[44] <= 0
 mccormick1[45]: - u[45] + r[45] <= 0
 mccormick1[46]: - u[46] + r[46] <= 0
 mccormick1[47]: - u[47] + r[47] <= 0
 mccormick1[48]: - u[48] + r[48] <= 0
 mccormick1[49]: - u[49] + r[49] <= 0
 mccormick1[50]: - u[50] + r[50] <= 0
 mccormick1[51]: - u[51] + r[51] <= 0
 mccormick1[52]: - u[52] + r[52] <= 0
 mccormick1[53]: - u[53] + r[53] <= 0
 mccormick1[54]: - u[54] + r[54] <= 0
 mccormick1[55]: - u[55] + r[55] <= 0
 mccormick1[56]: - u[56] + r[56] <= 0
 mccormick1[57]: - u[57] + r[57] <= 0
 mccormick1[58]: - u[58] + r[58] <= 0
 mccormick1[59]: - u[59] + r[59] <= 0
 mccormick1[60]: - u[60] + r[60] <= 0
 mccormick1[61]: - u[61] + r[61] <= 0
 mccormick1[62]: - u[62] + r[62] <= 0
 mccormick1[63]: - u[63] + r[63] <= 0
 mccormick1[64]: - u[64] + r[64] <= 0
 mccormick1[65]: - u[65] + r[65] <= 0
 mccormick1[66]: - u[66] + r[66] <= 0
 mccormick1[67]: - u[67] + r[67] <= 0
 mccormick1[68]: - u[68] + r[68] <= 0
 mccormick1[69]: - u[69] + r[69] <= 0
 mccormick2[0]: - x[0] + r[0] <= 0
 mccormick2[1]: - x[1] + r[1] <= 0
 mccormick2[2]: - x[2] + r[2] <= 0
 mccormick2[3]: - x[3] + r[3] <= 0
 mccormick2[4]: - x[4] + r[4] <= 0
 mccormick2[5]: - x[5] + r[5] <= 0
 mccormick2[6]: - x[6] + r[6] <= 0
 mccormick2[7]: - x[7] + r[7] <= 0
 mccormick2[8]: - x[8] + r[8] <= 0
 mccormick2[9]: - x[9] + r[9] <= 0
 mccormick2[10]: - x[10] + r[10] <= 0
 mccormick2[11]: - x[11] + r[11] <= 0
 mccormick2[12]: - x[12] + r[12] <= 0
 mccormick2[13]: - x[13] + r[13] <= 0
 mccormick2[14]: - x[14] + r[14] <= 0
 mccormick2[15]: - x[15] + r[15] <= 0
 mccormick2[16]: - x[16] + r[16] <= 0
 mccormick2[17]: - x[17] + r[17] <= 0
 mccormick2[18]: - x[18] + r[18] <= 0
 mccormick2[19]: - x[19] + r[19] <= 0
 mccormick2[20]: - x[20] + r[20] <= 0
 mccormick2[21]: - x[21] + r[21] <= 0
 mccormick2[22]: - x[22] + r[22] <= 0
 mccormick2[23]: - x[23] + r[23] <= 0
 mccormick2[24]: - x[24] + r[24] <= 0
 mccormick2[25]: - x[25] + r[25] <= 0
 mccormick2[26]: - x[26] + r[26] <= 0
 mccormick2[27]: - x[27] + r[27] <= 0
 mccormick2[28]: - x[28] + r[28] <= 0
 mccormick2[29]: - x[29] + r[29] <= 0
 mccormick2[30]: - x[30] + r[30] <= 0
 mccormick2[31]: - x[31] + r[31] <= 0
 mccormick2[32]: - x[32] + r[32] <= 0
 mccormick2[33]: - x[33] + r[33] <= 0
 mccormick2[34]: - x[34] + r[34] <= 0
 mccormick2[35]: - x[35] + r[35] <= 0
 mccormick2[36]: - x[36] + r[36] <= 0
 mccormick2[37]: - x[37] + r[37] <= 0
 mccormick2[38]: - x[38] + r[38] <= 0
 mccormick2[39]: - x[39] + r[39] <= 0
 mccormick2[40]: - x[40] + r[40] <= 0
 mccormick2[41]: - x[41] + r[41] <= 0
 mccormick2[42]: - x[42] + r[42] <= 0
 mccormick2[43]: - x[43] + r[43] <= 0
 mccormick2[44]: - x[44] + r[44] <= 0
 mccormick2[45]: - x[45] + r[45] <= 0
 mccormick2[46]: - x[46] + r[46] <= 0
 mccormick2[47]: - x[47] + r[47] <= 0
 mccormick2[48]: - x[48] + r[48] <= 0
 mccormick2[49]: - x[49] + r[49] <= 0
 mccormick2[50]: - x[50] + r[50] <= 0
 mccormick2[51]: - x[51] + r[51] <= 0
 mccormick2[52]: - x[52] + r[52] <= 0
 mccormick2[53]: - x[53] + r[53] <= 0
 mccormick2[54]: - x[54] + r[54] <= 0
 mccormick2[55]: - x[55] + r[55] <= 0
 mccormick2[56]: - x[56] + r[56] <= 0
 mccormick2[57]: - x[57] + r[57] <= 0
 mccormick2[58]: - x[58] + r[58] <= 0
 mccormick2[59]: - x[59] + r[59] <= 0
 mccormick2[60]: - x[60] + r[60] <= 0
 mccormick2[61]: - x[61] + r[61] <= 0
 mccormick2[62]: - x[62] + r[62] <= 0
 mccormick2[63]: - x[63] + r[63] <= 0
 mccormick2[64]: - x[64] + r[64] <= 0
 mccormick2[65]: - x[65] + r[65] <= 0
 mccormick2[66]: - x[66] + r[66] <= 0
 mccormick2[67]: - x[67] + r[67] <= 0
 mccormick2[68]: - x[68] + r[68] <= 0
 mccormick2[69]: - x[69] + r[69] <= 0
 mccormick3[0]: x[0] + u[0] - r[0] <= 1
 mccormick3[1]: x[1] + u[1] - r[1] <= 1
 mccormick3[2]: x[2] + u[2] - r[2] <= 1
 mccormick3[3]: x[3] + u[3] - r[3] <= 1
 mccormick3[4]: x[4] + u[4] - r[4] <= 1
 mccormick3[5]: x[5] + u[5] - r[5] <= 1
 mccormick3[6]: x[6] + u[6] - r[6] <= 1
 mccormick3[7]: x[7] + u[7] - r[7] <= 1
 mccormick3[8]: x[8] + u[8] - r[8] <= 1
 mccormick3[9]: x[9] + u[9] - r[9] <= 1
 mccormick3[10]: x[10] + u[10] - r[10] <= 1
 mccormick3[11]: x[11] + u[11] - r[11] <= 1
 mccormick3[12]: x[12] + u[12] - r[12] <= 1
 mccormick3[13]: x[13] + u[13] - r[13] <= 1
 mccormick3[14]: x[14] + u[14] - r[14] <= 1
 mccormick3[15]: x[15] + u[15] - r[15] <= 1
 mccormick3[16]: x[16] + u[16] - r[16] <= 1
 mccormick3[17]: x[17] + u[17] - r[17] <= 1
 mccormick3[18]: x[18] + u[18] - r[18] <= 1
 mccormick3[19]: x[19] + u[19] - r[19] <= 1
 mccormick3[20]: x[20] + u[20] - r[20] <= 1
 mccormick3[21]: x[21] + u[21] - r[21] <= 1
 mccormick3[22]: x[22] + u[22] - r[22] <= 1
 mccormick3[23]: x[23] + u[23] - r[23] <= 1
 mccormick3[24]: x[24] + u[24] - r[24] <= 1
 mccormick3[25]: x[25] + u[25] - r[25] <= 1
 mccormick3[26]: x[26] + u[26] - r[26] <= 1
 mccormick3[27]: x[27] + u[27] - r[27] <= 1
 mccormick3[28]: x[28] + u[28] - r[28] <= 1
 mccormick3[29]: x[29] + u[29] - r[29] <= 1
 mccormick3[30]: x[30] + u[30] - r[30] <= 1
 mccormick3[31]: x[31] + u[31] - r[31] <= 1
 mccormick3[32]: x[32] + u[32] - r[32] <= 1
 mccormick3[33]: x[33] + u[33] - r[33] <= 1
 mccormick3[34]: x[34] + u[34] - r[34] <= 1
 mccormick3[35]: x[35] + u[35] - r[35] <= 1
 mccormick3[36]: x[36] + u[36] - r[36] <= 1
 mccormick3[37]: x[37] + u[37] - r[37] <= 1
 mccormick3[38]: x[38] + u[38] - r[38] <= 1
 mccormick3[39]: x[39] + u[39] - r[39] <= 1
 mccormick3[40]: x[40] + u[40] - r[40] <= 1
 mccormick3[41]: x[41] + u[41] - r[41] <= 1
 mccormick3[42]: x[42] + u[42] - r[42] <= 1
 mccormick3[43]: x[43] + u[43] - r[43] <= 1
 mccormick3[44]: x[44] + u[44] - r[44] <= 1
 mccormick3[45]: x[45] + u[45] - r[45] <= 1
 mccormick3[46]: x[46] + u[46] - r[46] <= 1
 mccormick3[47]: x[47] + u[47] - r[47] <= 1
 mccormick3[48]: x[48] + u[48] - r[48] <= 1
 mccormick3[49]: x[49] + u[49] - r[49] <= 1
 mccormick3[50]: x[50] + u[50] - r[50] <= 1
 mccormick3[51]: x[51] + u[51] - r[51] <= 1
 mccormick3[52]: x[52] + u[52] - r[52] <= 1
 mccormick3[53]: x[53] + u[53] - r[53] <= 1
 mccormick3[54]: x[54] + u[54] - r[54] <= 1
 mccormick3[55]: x[55] + u[55] - r[55] <= 1
 mccormick3[56]: x[56] + u[56] - r[56] <= 1
 mccormick3[57]: x[57] + u[57] - r[57] <= 1
 mccormick3[58]: x[58] + u[58] - r[58] <= 1
 mccormick3[59]: x[59] + u[59] - r[59] <= 1
 mccormick3[60]: x[60] + u[60] - r[60] <= 1
 mccormick3[61]: x[61] + u[61] - r[61] <= 1
 mccormick3[62]: x[62] + u[62] - r[62] <= 1
 mccormick3[63]: x[63] + u[63] - r[63] <= 1
 mccormick3[64]: x[64] + u[64] - r[64] <= 1
 mccormick3[65]: x[65] + u[65] - r[65] <= 1
 mccormick3[66]: x[66] + u[66] - r[66] <= 1
 mccormick3[67]: x[67] + u[67] - r[67] <= 1
 mccormick3[68]: x[68] + u[68] - r[68] <= 1
 mccormick3[69]: x[69] + u[69] - r[69] <= 1
Bounds
Binaries
 x[0] x[1] x[2] x[3] x[4] x[5] x[6] x[7] x[8] x[9] x[10] x[11] x[12] x[13]
 x[14] x[15] x[16] x[17] x[18] x[19] x[20] x[21] x[22] x[23] x[24] x[25]
 x[26] x[27] x[28] x[29] x[30] x[31] x[32] x[33] x[34] x[35] x[36] x[37]
 x[38] x[39] x[40] x[41] x[42] x[43] x[44] x[45] x[46] x[47] x[48] x[49]
 x[50] x[51] x[52] x[53] x[54] x[55] x[56] x[57] x[58] x[59] x[60] x[61]
 x[62] x[63] x[64] x[65] x[66] x[67] x[68] x[69] u[0] u[1] u[2] u[3] u[4]
 u[5] u[6] u[7] u[8] u[9] u[10] u[11] u[12] u[13] u[14] u[15] u[16] u[17]
 u[18] u[19] u[20] u[21] u[22] u[23] u[24] u[25] u[26] u[27] u[28] u[29]
 u[30] u[31] u[32] u[33] u[34] u[35] u[36] u[37] u[38] u[39] u[40] u[41]
 u[42] u[43] u[44] u[45] u[46] u[47] u[48] u[49] u[50] u[51] u[52] u[53]
 u[54] u[55] u[56] u[57] u[58] u[59] u[60] u[61] u[62] u[63] u[64] u[65]
 u[66] u[67] u[68] u[69] r[0] r[1] r[2] r[3] r[4] r[5] r[6] r[7] r[8] r[9]
 r[10] r[11] r[12] r[13] r[14] r[15] r[16] r[17] r[18] r[19] r[20] r[21]
 r[22] r[23] r[24] r[25] r[26] r[27] r[28] r[29] r[30] r[31] r[32] r[33]
 r[34] r[35] r[36] r[37] r[38] r[39] r[40] r[41] r[42] r[43] r[44] r[45]
 r[46] r[47] r[48] r[49] r[50] r[51] r[52] r[53] r[54] r[55] r[56] r[57]
 r[58] r[59] r[60] r[61] r[62] r[63] r[64] r[65] r[66] r[67] r[68] r[69]
End
