instances/knapsack/discrete_knapsack_uncertainty/knapsack_70_19.kp
18795
70
339

70 7.0 19
23 2.3 15
25 2.5 97
22 2.2 73
43 4.3 94
16 1.6 82
68 6.8 50
46 4.6 84
52 5.2 19
93 9.3 95
82 8.2 72
6 0.6 76
91 9.1 8
63 6.3 83
23 2.3 72
59 5.9 21
4 0.4 31
99 9.9 79
36 3.6 43
89 8.9 62
60 6.0 38
90 9.0 92
99 9.9 73
53 5.3 41
23 2.3 6
99 9.9 31
37 3.7 77
50 5.0 68
68 6.8 63
6 0.6 49
56 5.6 94
6 0.6 73
22 2.2 61
92 9.2 44
71 7.1 100
16 1.6 46
75 7.5 22
91 9.1 28
55 5.5 87
93 9.3 48
78 7.8 65
64 6.4 18
1 0.1 70
28 2.8 96
86 8.6 35
77 7.7 24
80 8.0 29
20 2.0 61
6 0.6 65
91 9.1 70
73 7.3 12
51 5.1 63
68 6.8 60
67 6.7 82
7 0.7 33
6 0.6 91
80 8.0 39
77 7.7 13
27 2.7 57
21 2.1 64
83 8.3 85
73 7.3 27
10 1.0 42
65 6.5 30
62 6.2 43
55 5.5 82
23 2.3 34
1 0.1 6
3 0.3 33
12 1.2 30

23143
389

[4.587941022481406 5.044000278635922 0.08134865421692165 0.4965645997051891 4.6816928788278 0.10769822871098704 4.52106318974645 2.390756243555121 2.677862535982318 0.4098375241731307 3.731484805115045 0.132022789116371 2.607323888340914 0.4383593769357532 2.8596962539229573 0.9530582495782094 0.19100832752578656 3.376506494497526 5.005023767889311 1.3284051205948242 2.1410479491703036 5.312695894036689 3.554447130175752 0.056329905686591714 0.6413843883183327 1.054330651194559 4.220335573574749 2.526951366638518 4.133346982364671 5.543505521687389 1.9451023614825391 4.641633894078492 3.9812618636163073 4.220320571410412 1.7939537330620534 3.467867370759467 4.777859579213353 1.1896430071221267 2.086713246535497 0.16589135520664786 2.5039873141899416 0.6889327728118747 3.4544325463073737 2.6575851900125134 0.19439489216711717 0.7221737341381598 4.0024535954035185 2.4265380004172825 1.885304430371571 5.03038164060945 0.1947120376184421 1.3093796316619142 3.562919621924966 2.6519103602590595 3.958732259465003 0.5955487568988019 1.5187064363264011 0.13445091278391183 2.217493571082768 5.204860748200952 4.136625041573345 0.8595454813622029 1.5747401264349792 2.4911078187103772 1.6247996407023468 4.482886141734087 5.346174972494777 0.8878252399860629 5.078411757454513 0.6600862679864579]

[8 65 75 68 13 46 66 56 90 95 72 16 5 93 85 85 38 53 58 95 38 60 81 91 13 25 19 100 30 12 70 44 96 10 29 94 73 89 49 63 76 98 95 98 56 55 98 74 32 21 27 93 94 29 25 60 34 75 77 59 61 3 52 39 80 85 57 55 25 90]
